p tw 57 67
1 2
2 13
3 4
4 5
5 6
6 7
7 8
8 9
8 12
9 10
10 11
10 12
11 52
12 14
13 24
13 46
14 15
15 16
16 17
17 18
17 20
18 19
19 45
20 21
21 22
22 23
23 25
24 35
25 26
26 27
26 33
27 28
28 29
29 30
29 33
30 31
31 32
32 23
33 34
34 36
35 55
36 37
36 45
37 38
37 45
38 39
39 40
40 41
41 42
42 43
42 45
43 44
44 39
45 47
46 54
47 48
47 49
48 49
49 50
50 51
51 52
52 53
54 55
55 56
56 57
56 4
57 3
